# Objective value = 3.0065247708798995e+02
x[0] 0
x[1] 0
x[2] 0
x[3] 1
x[4] 0
x[5] 0
x[6] 1
x[7] 1
x[8] 1
x[9] 1
x[10] 0
x[11] 1
x[12] 0
x[13] 0
x[14] 0
x[15] 0
x[16] 1
x[17] 1
x[18] 0
x[19] 0
x[20] 0
x[21] 0
x[22] 1
x[23] 1
x[24] 0
x[25] 1
x[26] 1
x[27] 0
x[28] 1
x[29] 0
x[30] 0
x[31] 1
x[32] 0
x[33] 1
x[34] 1
x[35] 1
x[36] 0
x[37] 1
x[38] 1
x[39] 1
x[40] 1
x[41] 0
x[42] 0
x[43] 0
x[44] 0
x[45] 0
x[46] 1
x[47] 1
x[48] 0
x[49] 1
x[50] 1
x[51] 0
x[52] 0
x[53] 0
x[54] 0
x[55] 0
x[56] 0
x[57] 1
x[58] 0
x[59] 1
x[60] 1
x[61] 0
x[62] 0
x[63] 0
x[64] 1
x[65] 1
x[66] 1
x[67] 1
x[68] 1
x[69] 0
x[70] 0
x[71] 0
x[72] 0
x[73] 1
x[74] 0
x[75] 1
x[76] 0
x[77] 0
x[78] 0
x[79] 1
x[80] 0
x[81] 0
x[82] 0
x[83] 0
x[84] 1
x[85] 0
x[86] 0
x[87] 1
x[88] 1
x[89] 1
x[90] 0
x[91] 1
x[92] 0
x[93] 0
x[94] 1
x[95] 0
x[96] 0
x[97] 1
x[98] 1
x[99] 0
x[100] 0
x[101] 0
x[102] 0
x[103] 0
x[104] 0
x[105] 0
x[106] 0
x[107] 1
x[108] 0
x[109] 1
x[110] 0
x[111] 0
x[112] 0
x[113] 1
x[114] 1
x[115] 1
x[116] 1
x[117] 1
x[118] 1
x[119] 0
x[120] 1
x[121] 0
x[122] 1
x[123] 1
x[124] 1
x[125] 1
x[126] 1
x[127] 0
x[128] 1
x[129] 0
x[130] 1
x[131] 0
x[132] 1
x[133] 0
x[134] 1
x[135] 0
x[136] 0
x[137] 0
x[138] 1
x[139] 0
x[140] 1
x[141] 1
x[142] 0
x[143] 0
x[144] 0
x[145] 0
x[146] 1
x[147] 1
x[148] 0
x[149] 1
x[150] 0
x[151] 1
x[152] 0
x[153] 1
x[154] 0
x[155] 0
x[156] 1
x[157] 0
x[158] 0
x[159] 1
x[160] 1
x[161] 0
x[162] 0
x[163] 1
x[164] 1
x[165] 1
x[166] 1
x[167] 0
x[168] 1
x[169] 0
x[170] 0
x[171] 1
x[172] 0
x[173] 0
x[174] 1
x[175] 1
x[176] 1
x[177] 0
x[178] 0
x[179] 1
x[180] 0
x[181] 1
x[182] 0
x[183] 0
x[184] 1
x[185] 1
x[186] 0
x[187] 0
x[188] 0
x[189] 0
x[190] 1
x[191] 0
x[192] 0
x[193] 0
x[194] 0
x[195] 0
x[196] 1
x[197] 0
x[198] 1
x[199] 1
x[200] 1
x[201] 0
x[202] 0
x[203] 0
x[204] 0
x[205] 0
x[206] 0
x[207] 1
x[208] 0
x[209] 0
x[210] 1
x[211] 1
x[212] 0
x[213] 1
x[214] 1
x[215] 0
x[216] 1
x[217] 1
x[218] 0
x[219] 0
x[220] 0
x[221] 0
x[222] 0
x[223] 0
x[224] 1
x[225] 0
x[226] 1
x[227] 0
x[228] 0
x[229] 1
x[230] 1
x[231] 1
x[232] 0
x[233] 0
x[234] 1
x[235] 0
x[236] 0
x[237] 1
x[238] 1
x[239] 1
x[240] 0
x[241] 0
x[242] 0
x[243] 1
x[244] 0
x[245] 1
x[246] 1
x[247] 0
x[248] 0
x[249] 0
x[250] 0
x[251] 0
x[252] 0
x[253] 0
x[254] 1
x[255] 0
x[256] 0
x[257] 0
x[258] 1
x[259] 0
x[260] 1
x[261] 0
x[262] 0
x[263] 1
x[264] 1
x[265] 0
x[266] 1
x[267] 0
x[268] 0
x[269] 0
x[270] 0
x[271] 0
x[272] 0
x[273] 0
x[274] 1
x[275] 1
x[276] 1
x[277] 1
x[278] 1
x[279] 0
x[280] 0
x[281] 0
x[282] 1
x[283] 1
x[284] 1
x[285] 1
x[286] 1
x[287] 0
x[288] 0
x[289] 0
x[290] 0
x[291] 0
x[292] 1
x[293] 0
x[294] 0
x[295] 0
x[296] 0
x[297] 1
x[298] 1
x[299] 1
x[300] 1
x[301] 1
x[302] 0
x[303] 1
x[304] 0
x[305] 0
x[306] 0
x[307] 0
x[308] 0
x[309] 1
x[310] 0
x[311] 0
x[312] 1
x[313] 0
x[314] 1
x[315] 1
x[316] 1
x[317] 1
x[318] 1
x[319] 0
x[320] 1
x[321] 1
x[322] 1
x[323] 0
x[324] 0
x[325] 0
x[326] 1
x[327] 1
x[328] 0
x[329] 0
x[330] 1
x[331] 1
x[332] 1
x[333] 1
x[334] 0
x[335] 0
x[336] 1
x[337] 1
x[338] 1
x[339] 0
x[340] 0
x[341] 1
x[342] 1
x[343] 0
x[344] 1
x[345] 0
x[346] 1
x[347] 0
x[348] 1
x[349] 0
x[350] 0
x[351] 1
x[352] 0
x[353] 0
x[354] 1
x[355] 1
x[356] 1
x[357] 0
x[358] 1
x[359] 0
x[360] 1
x[361] 0
x[362] 1
x[363] 1
x[364] 0
x[365] 1
x[366] 1
x[367] 0
x[368] 0
x[369] 1
x[370] 0
x[371] 1
x[372] 1
x[373] 0
x[374] 1
x[375] 0
x[376] 0
x[377] 0
x[378] 0
x[379] 0
x[380] 1
x[381] 0
x[382] 0
x[383] 1
x[384] 0
x[385] 1
x[386] 1
x[387] 0
x[388] 0
x[389] 0
x[390] 1
x[391] 1
x[392] 1
x[393] 1
x[394] 0
x[395] 0
x[396] 0
x[397] 0
x[398] 1
x[399] 1
x[400] 0
x[401] 1
x[402] 1
x[403] 1
x[404] 0
x[405] 1
x[406] 1
x[407] 1
x[408] 0
x[409] 1
x[410] 1
x[411] 0
x[412] 0
x[413] 0
x[414] 1
x[415] 0
x[416] 0
x[417] 1
x[418] 1
x[419] 0
x[420] 1
x[421] 1
x[422] 1
x[423] 0
x[424] 0
x[425] 0
x[426] 1
x[427] 0
x[428] 0
x[429] 0
x[430] 1
x[431] 1
x[432] 0
x[433] 0
x[434] 1
x[435] 1
x[436] 1
x[437] 0
x[438] 1
x[439] 1
x[440] 0
x[441] 0
x[442] 1
x[443] 0
x[444] 1
x[445] 1
x[446] 0
x[447] 1
x[448] 0
x[449] 0
x[450] 1
x[451] 1
x[452] 0
x[453] 1
x[454] 0
x[455] 0
x[456] 0
x[457] 1
x[458] 0
x[459] 0
x[460] 1
x[461] 1
x[462] 0
x[463] 1
x[464] 1
x[465] 0
x[466] 1
x[467] 0
x[468] 0
x[469] 0
x[470] 1
x[471] 0
x[472] 1
x[473] 0
x[474] 1
x[475] 0
x[476] 0
x[477] 0
x[478] 1
x[479] 1
x[480] 0
x[481] 1
x[482] 0
x[483] 1
x[484] 1
x[485] 1
x[486] 0
x[487] 1
x[488] 1
x[489] 0
x[490] 1
x[491] 0
x[492] 0
x[493] 0
x[494] 1
x[495] 1
x[496] 1
x[497] 0
x[498] 1
x[499] 0
x[500] 0
x[501] 1
x[502] 0
x[503] 0
x[504] 1
x[505] 0
x[506] 0
x[507] 0
x[508] 0
x[509] 0
x[510] 1
x[511] 1
x[512] 1
x[513] 1
x[514] 0
x[515] 1
x[516] 0
x[517] 0
x[518] 0
x[519] 0
x[520] 0
x[521] 1
x[522] 0
x[523] 0
x[524] 0
x[525] 0
x[526] 1
x[527] 0
x[528] 1
x[529] 1
x[530] 1
x[531] 0
x[532] 1
x[533] 1
x[534] 0
x[535] 1
x[536] 0
x[537] 0
x[538] 0
x[539] 1
x[540] 0
x[541] 1
x[542] 1
x[543] 1
x[544] 1
x[545] 0
x[546] 1
x[547] 1
x[548] 1
x[549] 1
x[550] 1
x[551] 1
x[552] 0
x[553] 1
x[554] 1
x[555] 1
x[556] 0
x[557] 0
x[558] 1
x[559] 1
x[560] 0
x[561] 0
x[562] 0
x[563] 1
x[564] 1
x[565] 0
x[566] 1
x[567] 1
x[568] 0
x[569] 1
x[570] 1
x[571] 1
x[572] 1
x[573] 1
x[574] 1
x[575] 1
x[576] 0
x[577] 0
x[578] 0
x[579] 1
x[580] 1
x[581] 1
x[582] 0
x[583] 1
x[584] 1
x[585] 1
x[586] 1
x[587] 0
x[588] 1
x[589] 1
x[590] 1
x[591] 1
x[592] 0
x[593] 1
x[594] 1
x[595] 0
x[596] 1
x[597] 1
x[598] 0
x[599] 0
x[600] 1
x[601] 1
x[602] 1
x[603] 0
x[604] 0
x[605] 1
x[606] 1
x[607] 1
x[608] 1
x[609] 0
x[610] 0
x[611] 1
x[612] 1
x[613] 1
x[614] 1
x[615] 0
x[616] 1
x[617] 1
x[618] 1
x[619] 0
x[620] 1
x[621] 1
x[622] 0
x[623] 1
x[624] 0
x[625] 0
x[626] 1
x[627] 0
x[628] 1
x[629] 0
x[630] 1
x[631] 1
x[632] 1
x[633] 0
x[634] 1
x[635] 1
x[636] 0
x[637] 0
x[638] 1
x[639] 1
x[640] 1
x[641] 0
x[642] 0
x[643] 0
x[644] 0
x[645] 1
x[646] 1
x[647] 0
x[648] 1
x[649] 0
x[650] 0
x[651] 0
x[652] 1
x[653] 0
x[654] 0
x[655] 1
x[656] 0
x[657] 1
x[658] 1
x[659] 1
x[660] 1
x[661] 0
x[662] 1
x[663] 0
x[664] 1
x[665] 0
x[666] 1
x[667] 0
x[668] 0
x[669] 1
x[670] 0
x[671] 0
x[672] 1
x[673] 0
x[674] 0
x[675] 1
x[676] 0
x[677] 0
x[678] 1
x[679] 1
x[680] 0
x[681] 0
x[682] 0
x[683] 0
x[684] 1
x[685] 1
x[686] 1
x[687] 0
x[688] 0
x[689] 0
x[690] 1
x[691] 0
x[692] 0
x[693] 1
x[694] 1
x[695] 1
x[696] 0
x[697] 0
x[698] 0
x[699] 0
x[700] 1
x[701] 0
x[702] 0
x[703] 0
x[704] 0
x[705] 1
x[706] 1
x[707] 1
x[708] 0
x[709] 0
x[710] 0
x[711] 1
x[712] 1
x[713] 0
x[714] 0
x[715] 0
x[716] 0
x[717] 1
x[718] 0
x[719] 0
x[720] 1
x[721] 1
x[722] 1
x[723] 1
x[724] 0
x[725] 0
x[726] 1
x[727] 0
x[728] 0
x[729] 0
x[730] 0
x[731] 0
x[732] 1
x[733] 0
x[734] 0
x[735] 0
x[736] 1
x[737] 1
x[738] 0
x[739] 1
x[740] 0
x[741] 0
x[742] 0
x[743] 0
x[744] 0
x[745] 0
x[746] 1
x[747] 0
x[748] 1
x[749] 0
x[750] 1
x[751] 0
x[752] 0
x[753] 0
x[754] 1
x[755] 0
x[756] 1
x[757] 1
x[758] 1
x[759] 1
x[760] 1
x[761] 0
x[762] 1
x[763] 0
x[764] 0
x[765] 0
x[766] 1
x[767] 0
x[768] 0
x[769] 1
x[770] 1
x[771] 1
x[772] 0
x[773] 1
x[774] 0
x[775] 0
x[776] 0
x[777] 1
x[778] 1
x[779] 0
x[780] 0
x[781] 0
x[782] 0
x[783] 0
x[784] 1
x[785] 0
x[786] 0
x[787] 1
x[788] 1
x[789] 0
x[790] 1
x[791] 1
x[792] 0
x[793] 0
x[794] 0
x[795] 0
x[796] 1
x[797] 1
x[798] 0
x[799] 1
x[800] 0
x[801] 0
x[802] 0
x[803] 1
x[804] 1
x[805] 0
x[806] 1
x[807] 1
x[808] 0
x[809] 0
x[810] 1
x[811] 1
x[812] 1
x[813] 0
x[814] 1
x[815] 1
x[816] 1
x[817] 1
x[818] 0
x[819] 0
x[820] 1
x[821] 0
x[822] 0
x[823] 0
x[824] 1
x[825] 0
x[826] 0
x[827] 0
x[828] 0
x[829] 0
x[830] 0
x[831] 0
x[832] 0
x[833] 0
x[834] 0
x[835] 0
x[836] 0
x[837] 1
x[838] 1
x[839] 1
x[840] 0
x[841] 0
x[842] 1
x[843] 1
x[844] 1
x[845] 1
x[846] 0
x[847] 0
x[848] 1
x[849] 0
x[850] 1
x[851] 1
x[852] 1
x[853] 1
x[854] 0
x[855] 0
x[856] 0
x[857] 0
x[858] 1
x[859] 0
x[860] 1
x[861] 0
x[862] 1
x[863] 1
x[864] 0
x[865] 1
x[866] 0
x[867] 0
x[868] 0
x[869] 0
x[870] 0
x[871] 0
x[872] 1
x[873] 1
x[874] 0
x[875] 0
x[876] 1
x[877] 1
x[878] 0
x[879] 1
x[880] 1
x[881] 1
x[882] 0
x[883] 0
x[884] 1
x[885] 0
x[886] 1
x[887] 1
x[888] 0
x[889] 1
x[890] 0
x[891] 0
x[892] 0
x[893] 0
x[894] 0
x[895] 1
x[896] 0
x[897] 0
x[898] 1
x[899] 1
x[900] 0
x[901] 1
x[902] 1
x[903] 1
x[904] 0
x[905] 0
x[906] 1
x[907] 0
x[908] 1
x[909] 0
x[910] 1
x[911] 0
x[912] 1
x[913] 0
x[914] 1
x[915] 1
x[916] 0
x[917] 1
x[918] 1
x[919] 0
x[920] 1
x[921] 1
x[922] 1
x[923] 0
x[924] 1
x[925] 1
x[926] 1
x[927] 0
x[928] 1
x[929] 0
x[930] 0
x[931] 0
x[932] 0
x[933] 0
x[934] 0
x[935] 1
x[936] 0
x[937] 0
x[938] 0
x[939] 0
x[940] 0
x[941] 1
x[942] 0
x[943] 0
x[944] 1
x[945] 1
x[946] 0
x[947] 1
x[948] 0
x[949] 0
x[950] 1
x[951] 0
x[952] 0
x[953] 0
x[954] 0
x[955] 0
x[956] 1
x[957] 0
x[958] 0
x[959] 1
x[960] 1
x[961] 1
x[962] 0
x[963] 0
x[964] 0
x[965] 0
x[966] 0
x[967] 0
x[968] 0
x[969] 1
x[970] 0
x[971] 0
x[972] 1
x[973] 1
x[974] 0
x[975] 0
x[976] 0
x[977] 1
x[978] 0
x[979] 1
x[980] 0
x[981] 1
x[982] 0
x[983] 1
x[984] 0
x[985] 0
x[986] 1
x[987] 0
x[988] 0
x[989] 1
x[990] 0
x[991] 1
x[992] 1
x[993] 1
x[994] 1
x[995] 1
x[996] 0
x[997] 0
x[998] 0
x[999] 0
